109937
68, 59, 53, 83, 8, 28, 79, 61, 6, 35, 30, 38, 2, 7, 56, 17, 58, 77, 9, 20, 67, 76, 62, 80, 45, 46, 54, 21, 71, 66, 36, 26, 70, 14, 29, 10, 1, 64, 73, 13, 37, 18, 65, 4, 50, 63, 39, 41, 52, 78, 69, 25, 15, 42, 55, 23, 43, 12, 3, 57, 49, 34, 47, 60, 81, 72, 51, 27, 33, 16, 11, 40, 74, 32, 82, 75, 44, 22, 5, 48, 19, 24, 31
